&CONTROL
  calculation = 'md'
  outdir = './tmp/'
  prefix = 'pwscf'
  pseudo_dir = '/leonardo_scratch/large/userexternal/uraucci0/Li_Cr/PPS/'
  tprnfor = .true.
  tstress = .true.
  verbosity = 'high'
  disk_io='low'
  nstep = 100000
  dt=20.D0
/

&SYSTEM
  degauss = 1.4699723600d-02   
  ecutrho     = 540 
  ecutwfc     = 90 
  ibrav       = 0 
  nat= 308	!number of atoms
  ntyp=5 
  occupations = "smearing"
  smearing = 'gaussian'
  tot_charge = 0
  nosym = .true.
/

&ELECTRONS
  diagonalization = 'david'
  conv_thr         =  1.00000e-07
  electron_maxstep =  200
  mixing_beta =   2.0000000000d-01
  startingpot      = "atomic"
  startingwfc      = "atomic+random"
/

&IONS
ion_dynamics="verlet"
tempw=900.D0
ion_temperature="svr"
nraise=100
/

&CELL
/

ATOMIC_SPECIES
N   14.00674 N.pbe-n-radius_5.UPF
Li   6.94100 li_pbe_v1.4.uspp.F.UPF
Cr 51.9961 cr_pbe_v1.5.uspp.F.UPF
O 15.9994 O.pbe-n-kjpaw_psl.0.1.UPF  
H 1.00794 H.pbe-rrkjus_psl.1.0.0.UPF

K_POINTS {gamma}

CELL_PARAMETERS {angstrom}
17.111041116 0.0 0.0
-5.703680372 9.879064196 0.0
0.0 -0.0 45.1553882112

ATOMIC_POSITIONS {angstrom} 
  Li                 4.43735600    1.49393400   15.00000000        0   0   0
  Li                 2.19121800    3.09589600   15.00000000        0   0   0
  Li                 1.92694700    0.34970300   15.00000000        0   0   0
  Li                -1.40685200    3.42400100   21.94560800    
  Li                 0.72953900    1.70917800   22.15684900    
  Li                 0.98789400    4.53894900   22.16555800    
  Li                 1.14634000    1.54780600   17.68635400        0   0   0
  Li                 3.79007100    0.21885700   17.68635400        0   0   0
  Li                 3.61910900    3.17286900   17.68635400        0   0   0
  Li                 1.41871000    3.22809700   19.13122700    
  Li                -1.04033300    4.84965600   19.05493900    
  Li                -0.89248900    1.74502100   18.89754900    
  Li                 0.00000000    0.00000000   16.47267200        0   0   0
  Li                 0.28359900    0.20007300   20.28696300    
  Cr                 2.89765800    1.73114200   20.62660000    
  Cr                 0.00000000    3.29302100   16.21939300        0   0   0
  N                  4.61636200    1.70874300   21.16030500    
  N                  3.02192600    1.65983200   18.82909800    
  N                 -1.65864400    3.39274100   15.68823900        0   0   0
  N                  0.74296200    1.80673300   15.68823900        0   0   0
  N                  0.91568200    4.67959000   15.68823900        0   0   0
  N                  1.85123300    0.32988300   21.23469000    
  N                  2.12139200    3.07132100   21.30877100    
  N                  0.00000000    3.29302100   17.96209700        0   0   0
  O                  0.05745600   -0.00839600   18.42862300    
  Li                 4.48415300    1.50207100   23.56928300    
  Li                 2.06315000    3.02498500   23.56635700    
  Li                 2.01477200    0.25423500   23.64789400    
  Li                -1.61441100    3.57976700   30.73676300    
  Li                 0.86675500    1.95862700   30.78642100    
  Li                 1.41064100    4.96936300   31.17680500    
  Li                 1.08032300    1.38461800   26.48884200    
  Li                 3.96589000    0.23700200   26.54645900    
  Li                 3.43080200    3.24692700   26.44992600    
  Li                 1.44966700    3.66167800   28.01040800    
  Li                -1.03704400    4.73201200   27.75166500    
  Li                -0.75492700    1.94672100   27.84211200    
  Li                -0.09608500    0.02339600   25.18040500    
  Li                 0.00028600   -0.08598300   29.20957200    
  Cr                 2.84037100    1.59494500   29.43299300    
  Cr                 0.01030500    3.23875800   24.87080600    
  N                  4.53730200    1.54663500   29.77172900    
  N                  2.74911100    1.53763800   27.60132200    
  N                 -1.68304800    3.15578400   24.20474200    
  N                  0.75213700    1.79882100   24.40375700    
  N                  1.07959300    4.56912300   24.27623000    
  N                  1.97452100    0.22714600   29.97062500    
  N                  2.13532300    3.14501500   30.01486600    
  N                 -0.07314000    3.43475700   26.60586700    
  O                  0.07739700   -0.24026000   27.14455400    
  Li                 1.58551500    6.43346600   15.00000000        0   0   0
  Li                -0.66062200    8.03542800   15.00000000        0   0   0
  Li                -0.92489300    5.28923500   15.00000000        0   0   0
  Li                -4.53410600    8.25017900   21.87384000    
  Li                -2.25375400    6.81374400   21.74771100    
  Li                -1.92369900    9.59758400   22.20850200    
  Li                -1.70550000    6.48733800   17.68635400        0   0   0
  Li                 0.93823100    5.15838900   17.68635400        0   0   0
  Li                 0.76726900    8.11240100   17.68635400        0   0   0
  Li                -1.13083800    8.34616000   18.93052500    
  Li                -3.63612200    9.36833700   19.32553500    
  Li                -3.67471900    6.76413700   19.52539400    
  Li                -2.85184000    4.93953200   16.47267200        0   0   0
  Li                -2.86469700    4.88818300   20.53870200    
  Cr                 0.14656300    6.54541300   20.68736600    
  Cr                -2.85184000    8.23255300   16.21939300        0   0   0
  N                  1.76913800    6.45305800   21.28980600    
  N                  0.07635200    6.53331500   18.82924800    
  N                 -4.51048500    8.33227300   15.68823900        0   0   0
  N                 -2.10887800    6.74626500   15.68823900        0   0   0
  N                 -1.93615800    9.61912200   15.68823900        0   0   0
  N                 -0.91841300    5.32785400   21.46416500    
  N                 -0.44715900    8.09995100   21.10476700    
  N                 -2.85184000    8.23255300   17.96209700        0   0   0
  O                 -2.82629300    5.19996400   18.44928900    
  Li                 1.48434900    6.33021600   23.46225700    
  Li                -0.66094800    8.00505400   23.59070800    
  Li                -0.97117800    5.08106500   23.50965100    
  Li                -4.43247100    8.17952100   30.65098600    
  Li                -2.07247900    6.90465900   30.82057600    
  Li                -1.52423500    9.69905000   30.36270700    
  Li                -1.94077300    6.57346000   26.52797500    
  Li                 0.61957500    5.40515900   26.18267100    
  Li                 0.68971100    8.09948100   26.10405000    
  Li                -1.00348100    8.33998200   28.12713400    
  Li                -3.69603900    9.44969800   27.82239900    
  Li                -3.46979000    6.75021900   28.00268700    
  Li                -2.96375600    4.63175500   25.07629000    
  Li                -2.75099200    4.64267200   29.08217200    
  Cr                -0.04729200    6.46937900   29.43276800    
  Cr                -2.88510500    8.26211600   24.97433900    
  N                  1.62463200    6.33742500   29.98723800    
  N                 -0.08589900    6.57889700   27.72778900    
  N                 -4.49629600    8.37825300   24.46029100    
  N                 -2.19924000    6.61415600   24.49821300    
  N                 -2.11669400    9.63946900   24.30813600    
  N                 -0.95111200    5.42802900   30.12567900    
  N                 -0.92060600    7.95674000   30.06236600    
  N                 -2.75818200    8.32064800   26.69690900    
  O                 -2.92811100    5.10540700   27.13163900    
  Li                10.14103600    1.49393400   15.00000000        0   0   0
  Li                 7.89489800    3.09589600   15.00000000        0   0   0
  Li                 7.63062800    0.34970300   15.00000000        0   0   0
  Li                 4.00791600    3.54042000   21.99979200    
  Li                 6.45937500    1.92294000   22.06841900    
  Li                 6.38388500    4.56759700   22.00243200    
  Li                 6.85002100    1.54780600   17.68635400        0   0   0
  Li                 9.49375200    0.21885700   17.68635400        0   0   0
  Li                 9.32278900    3.17286900   17.68635400        0   0   0
  Li                 7.25660800    3.49022000   19.29934900    
  Li                 4.77004600    4.60583400   19.30470500    
  Li                 5.00252200    1.82612300   19.17286700    
  Li                 5.70368100    0.00000000   16.47267200        0   0   0
  Li                 5.65703100   -0.07897500   20.61853400    
  Cr                 8.42033700    1.61904500   20.63108300    
  Cr                 5.70368100    3.29302100   16.21939300        0   0   0
  N                 10.08824800    1.55656100   21.34289400    
  N                  8.42290800    1.65974400   18.90407800    
  N                  4.04503600    3.39274100   15.68823900        0   0   0
  N                  6.44664200    1.80673300   15.68823900        0   0   0
  N                  6.61936300    4.67959000   15.68823900        0   0   0
  N                  7.47525700    0.26396200   21.28339800    
  N                  7.69608700    3.13203700   21.21409800    
  N                  5.70368100    3.29302100   17.96209700        0   0   0
  O                  5.68844100   -0.14632800   18.39610300    
  Li                10.07441900    1.62243500   23.74022700    
  Li                 7.67556200    3.00707600   23.50173200    
  Li                 7.54308200    0.26499300   23.60568400    
  Li                 4.09558400    3.53760100   30.50605000    
  Li                 6.38523900    1.83759400   30.47553300    
  Li                 6.60678000    4.78266200   30.78452900    
  Li                 7.07486400    1.84647200   26.17772700    
  Li                 9.30941900    0.11913300   26.07395000    
  Li                 9.21294400    3.16803600   26.47868200    
  Li                 7.55679000    3.33743100   27.67490000    
  Li                 4.71591400    4.73964300   28.07676100    
  Li                 5.08329900    1.70060300   27.63653200    
  Li                 5.58995100    0.30232000   24.92348100    
  Li                 6.00575800    0.08314100   28.87175200    
  Cr                 8.45139500    1.59118900   29.30223100    
  Cr                 5.71319200    3.21486500   24.88411100    
  N                 10.33051900    1.43280800   29.69583300    
  N                  8.38398800    1.61994200   27.51998900    
  N                  3.98637400    3.30576300   24.16622400    
  N                  6.69603300    1.66433500   24.19758400    
  N                  6.70988200    4.42982900   24.39569300    
  N                  7.62799600    0.23487800   30.00333400    
  N                  7.69763300    3.06303800   29.84905200    
  N                  5.50958800    3.20554900   26.56733300    
  O                  5.72501000   -0.00758600   27.07883500    
  Li                 7.28919600    6.43346600   15.00000000        0   0   0
  Li                 5.04305800    8.03542800   15.00000000        0   0   0
  Li                 4.77878700    5.28923500   15.00000000        0   0   0
  Li                 1.15686200    8.39368300   21.97841300    
  Li                 3.49709900    6.76215600   21.69288100    
  Li                 3.79281000    9.56830200   22.16736600    
  Li                 3.99818100    6.48733800   17.68635400        0   0   0
  Li                 6.64191100    5.15838900   17.68635400        0   0   0
  Li                 6.47094900    8.11240100   17.68635400        0   0   0
  Li                 4.38315100    8.46122200   19.31542000    
  Li                 1.98883800    9.21364500   19.33575400    
  Li                 2.22144300    6.61655600   19.00100700    
  Li                 2.85184000    4.93953200   16.47267200        0   0   0
  Li                 2.92503600    4.58257700   20.21460900    
  Cr                 5.69739100    6.66965200   20.76098100    
  Cr                 2.85184000    8.23255300   16.21939300        0   0   0
  N                  7.29933200    6.45687700   21.40523100    
  N                  5.61066300    6.68818400   19.03084900    
  N                  1.19319600    8.33227300   15.68823900        0   0   0
  N                  3.59480200    6.74626500   15.68823900        0   0   0
  N                  3.76752300    9.61912200   15.68823900        0   0   0
  N                  4.62530500    5.31776300   21.29606600    
  N                  4.87156800    8.06319700   21.18174700    
  N                  2.85184000    8.23255300   17.96209700        0   0   0
  O                  2.83766700    4.98656300   18.29006000    
  Li                 7.26672700    6.42048800   23.57418400    
  Li                 5.08570600    7.94418700   23.27602200    
  Li                 4.73799400    5.13098300   23.51099600    
  Li                 0.96595600    8.20359400   30.43659600    
  Li                 3.39665900    6.73385900   30.78970300    
  Li                 3.86928400    9.58287700   30.55826800    
  Li                 3.66763500    6.18872100   26.50339500    
  Li                 6.46363100    4.99055500   26.35524700    
  Li                 6.27362900    8.36853100   26.55320000    
  Li                 4.36157600    8.45325100   28.03455400    
  Li                 1.91311500    9.79341900   27.46864900    
  Li                 1.90999000    6.56872800   27.96021300    
  Li                 2.72827800    4.73322000   24.98373400    
  Li                 2.83616600    4.86217600   29.22688900    
  Cr                 5.47337500    6.72251800   29.47077400    
  Cr                 2.91137000    8.03237200   24.84351200    
  N                  7.18228900    6.71421000   29.86627800    
  N                  5.44325000    6.42618200   27.74210900    
  N                  1.17309100    8.21695900   24.24946200    
  N                  3.63724900    6.50802400   24.21024700    
  N                  3.79447700    9.43751900   24.19534500    
  N                  4.61015400    5.26988600   30.14628400    
  N                  4.71242000    8.12284200   30.04613100    
  N                  2.69002100    8.11450500   26.46309700    
  O                  2.65838600    4.69333100   27.23247700    
  Li                15.84471600    1.49393400   15.00000000        0   0   0
  Li                13.59857800    3.09589600   15.00000000        0   0   0
  Li                13.33430800    0.34970300   15.00000000        0   0   0
  Li                 9.67528100    3.28299600   22.08453400    
  Li                12.16799100    1.89696700   21.82935000    
  Li                12.29988700    4.58775400   22.06454300    
  Li                12.55370100    1.54780600   17.68635400        0   0   0
  Li                15.19743200    0.21885700   17.68635400        0   0   0
  Li                15.02647000    3.17286900   17.68635400        0   0   0
  Li                13.10371200    3.59682900   19.08153000    
  Li                10.58072100    4.88366700   19.19514500    
  Li                10.46605500    1.82120200   19.35567700    
  Li                11.40736100    0.00000000   16.47267200        0   0   0
  Li                11.47568900    0.17773500   20.42538600    
  Cr                14.19214600    1.70966600   20.56185500    
  Cr                11.40736100    3.29302100   16.21939300        0   0   0
  N                 15.78072900    1.51710600   21.35101100    
  N                 14.29516300    1.70035400   18.86595500    
  N                  9.74871600    3.39274100   15.68823900        0   0   0
  N                 12.15032300    1.80673300   15.68823900        0   0   0
  N                 12.32304300    4.67959000   15.68823900        0   0   0
  N                 13.14318000    0.55343100   21.19241700    
  N                 13.35959900    3.14249100   21.21705100    
  N                 11.40736100    3.29302100   17.96209700        0   0   0
  O                 11.44078400   -0.04216900   18.51805500    
  Li                15.98895600    1.21953900   23.87437200    
  Li                13.57655000    2.89350300   23.33780700    
  Li                13.04343400    0.25155000   23.69075200    
  Li                 9.95729200    3.45336000   30.49640700    
  Li                12.10049600    1.82299400   30.62381900    
  Li                12.67082100    4.70467800   30.69503000    
  Li                12.73692200    1.47400200   26.36815300    
  Li                15.06513300    0.03549800   26.16961900    
  Li                14.93613500    2.60666800   26.19976600    
  Li                12.92411600    3.12515700   27.88209200    
  Li                10.32320100    4.47817600   27.59748300    
  Li                10.46610900    1.62206800   27.88956800    
  Li                11.29861900    0.08773500   25.06312400    
  Li                11.44541300    0.18549200   28.90175800    
  Cr                14.36137200    1.60743100   29.44328500    
  Cr                11.39880500    3.27726300   24.90090400    
  N                 15.89313300    1.29475100   30.07627300    
  N                 14.25999000    1.65530200   27.68953300    
  N                  9.66398000    3.49382900   24.38613700    
  N                 12.09103800    1.83285700   24.32812700    
  N                 12.33233800    4.64325600   24.26483700    
  N                 13.28585700    0.30743600   30.00405500    
  N                 13.66287600    3.06351100   30.16106400    
  N                 11.52230800    3.26973500   26.61794300    
  O                 11.41189600    0.16242100   27.02122100    
  Li                12.99287600    6.43346600   15.00000000        0   0   0
  Li                10.74673800    8.03542800   15.00000000        0   0   0
  Li                10.48246800    5.28923500   15.00000000        0   0   0
  Li                 7.00791700    8.29952700   21.98276300    
  Li                 9.20476100    6.82638500   21.91522800    
  Li                 9.67776600    9.77580700   22.08104900    
  Li                 9.70186100    6.48733800   17.68635400        0   0   0
  Li                12.34559200    5.15838900   17.68635400        0   0   0
  Li                12.17462900    8.11240100   17.68635400        0   0   0
  Li                10.27369500    8.35043300   19.46001100    
  Li                 7.64137600    9.65288000   19.18314200    
  Li                 7.66841700    6.55254600   19.30978400    
  Li                 8.55552100    4.93953200   16.47267200        0   0   0
  Li                 8.66262100    5.00503200   20.71147900    
  Cr                11.37723900    6.56675800   20.86514900    
  Cr                 8.55552000    8.23255300   16.21939300        0   0   0
  N                 13.01415600    6.46822500   21.53911200    
  N                 11.33281800    6.82043100   19.22427000    
  N                  6.89687600    8.33227300   15.68823900        0   0   0
  N                  9.29848300    6.74626500   15.68823900        0   0   0
  N                  9.47120300    9.61912200   15.68823900        0   0   0
  N                 10.43770500    5.22431400   21.24180600    
  N                 10.69856700    8.07585500   21.57119600    
  N                  8.55552000    8.23255300   17.96209700        0   0   0
  O                  8.42131900    4.96405200   18.51842700    
  Li                13.17600700    6.42014400   23.78077300    
  Li                10.76776200    8.30272300   23.54732100    
  Li                10.37793900    5.18437600   23.46785400    
  Li                 6.79303600    8.33699600   30.61219800    
  Li                 9.17904500    6.75938100   30.69747700    
  Li                 9.88763400    9.60486100   30.88552700    
  Li                 9.76073200    6.44805200   26.36840600    
  Li                12.33736500    5.29660800   26.58671800    
  Li                11.98604000    7.96322300   26.29663700    
  Li                10.33215700    8.33206900   27.78474600    
  Li                 8.23732500    9.45641800   28.10294300    
  Li                 7.87045100    6.78932300   27.88308500    
  Li                 8.53772100    4.86631300   25.26292600    
  Li                 8.52038800    4.92759900   29.10384400    
  Cr                11.35625800    6.45540400   29.30884200    
  Cr                 8.62594300    8.10460900   24.74251700    
  N                 13.10114700    6.44082200   30.02628500    
  N                 11.25594500    6.43710600   27.54532600    
  N                  7.01012700    8.17868900   24.09123800    
  N                  9.32008900    6.65938200   24.17686300    
  N                  9.54192600    9.55410000   24.19079800    
  N                 10.56334800    5.11063900   29.77050200    
  N                 10.56334600    8.01058500   29.74430700    
  N                  8.66211400    8.24115000   26.61529400    
  O                  8.55022000    4.83024400   27.22719000    
  N                  8.13848568    3.28830185   31.71961806
  H                  8.47180757    2.34548877   31.71961806
  H                  8.47182478    3.75970203   32.53611479
  H                  9.94914306    1.57207019   30.60970303
  N                  4.01246977    7.21040425   32.84397935
  H                  4.34579166    6.26759116   32.84397935
  H                  4.34580887    7.68180443   33.66047609
  H                  7.18228900    6.71421000   30.86627800
