&GLOBAL
  PRINT_LEVEL LOW
   PROJECT AB 
   !RUN_TYPE WFN_OPT
   !RUN_TYPE GEO_OPT
   RUN_TYPE MD
   SEED 1987 

&END GLOBAL

!&EXT_RESTART
!EXTERNAL_FILE test_1-1.restart
!RESTART_POS T
!RESTART_VEL T
!RESTART_THERMOSTAT T
!&END EXT_RESTART

&MOTION

  &MD

   COMVEL_TOL 0.000005
   ANGVEL_TOL 0.000005	
   ANGVEL_ZERO
   ENSEMBLE NVT
   STEPS 100000
   TIMESTEP 1
   TEMPERATURE 400.0

!   TEMP_TOL 40

!   &PRINT
!    &ENERGY
!       EACH 5
!    &END ENERGY
!    &RESTART
!       EACH 100
!    &END RESTART
!   &END PRINT

    &THERMOSTAT
      TYPE CSVR
      &CSVR
        TIMECON 40.
      &END CSVR
    &END THERMOSTAT

  
 &END MD

  &PRINT
     &VELOCITIES OFF
     &END
     &FORCES
      &EACH
         MD 50
      &END
     &END
     &TRAJECTORY
      &EACH
         MD 5 
      &END
     &END
     &RESTART
      &EACH
          MD 1 
      &END
     &END
     &RESTART_HISTORY
       &EACH
          MD 50
       &END
     &END
  &END PRINT

  &FREE_ENERGY
	&METADYN
           USE_PLUMED .TRUE.
           PLUMED_INPUT_FILE ./plumed.dat
        &END METADYN
  &END FREE_ENERGY

!   &FREE_ENERGY
!    &METADYN
!      WELL_TEMPERED
!      WTGAMMA 10
!      DO_HILLS
!      NT_HILLS 100
!      WW 0.0005
!      &METAVAR
!       COLVAR 1
!       SCALE 0.08

!      &END METAVAR
!      &PRINT
!       &COLVAR
!        COMMON_ITERATION_LEVELS 10000
!       &END COLVAR
!       &HILLS
!        COMMON_ITERATION_LEVELS 10000
!       &END HILLS
!      &END PRINT

!    &END METADYN
!  &END FREE_ENERGY



&END MOTION

&FORCE_EVAL
  METHOD Quickstep

  &DFT
    WFN_RESTART_FILE_NAME AB-RESTART.wfn
    CHARGE 0
    MULTIPLICITY 1
    BASIS_SET_FILE_NAME BASIS_MOLOPT
    POTENTIAL_FILE_NAME GTH_POTENTIALS
  
    &MGRID
      CUTOFF 300
    &END MGRID
    
    &QS      
	EPS_DEFAULT 1.0E-10
	EXTRAPOLATION_ORDER 3
    &END QS

    !&POISSON
    !PERIODIC NONE
    !POISSON_SOLVER MT
    !&END POISSON

    &SCF

      SCF_GUESS ATOMIC
!      SCF_GUESS RESTART
      EPS_SCF 1.e-6
      MAX_SCF 50
      &OT
        MINIMIZER DIIS
        N_DIIS 7
        PRECONDITIONER FULL_KINETIC
      &END OT

       &OUTER_SCF
        TYPE NONE
        OPTIMIZER NONE
        EPS_SCF 1.0E-6
        MAX_SCF 25

       &END OUTER_SCF 
    &END SCF
    
    &XC
     &XC_FUNCTIONAL PBE
     &END XC_FUNCTIONAL

     &XC_GRID
      XC_SMOOTH_RHO NN50
      XC_DERIV NN50_SMOOTH
     &END XC_GRID

    &END XC

!    &PRINT
!     &MULLIKEN ON
!	  FILENAME ./mulliken.dat
! 	  &EACH
!	   MD 1
!	  &END EACH
!     &END MULLIKEN
!    &END PRINT

  &END DFT

  &SUBSYS
    &CELL
      ABC 10.4920 10.4920 10.0720
      PERIODIC XYZ
    &END CELL

    &KIND H
      BASIS_SET DZVP-MOLOPT-SR-GTH-q1
      POTENTIAL GTH-PBE-q1
      ELEMENT H
    &END KIND

    &KIND N
      BASIS_SET  DZVP-MOLOPT-SR-GTH-q5
      POTENTIAL GTH-PBE-q5
      ELEMENT N
    &END KIND

    &KIND B
      BASIS_SET  DZVP-MOLOPT-SR-GTH-q3
      POTENTIAL GTH-PBE-q3
      ELEMENT B
    &END KIND

    &COORD
 B         7.799632        0.999800       -0.849413
 B         9.167204        4.916588        0.053512
 N         7.972407        2.204415       -1.997913
 N        11.316622        5.563316        2.020890
 H         8.708129        2.018985       -2.798334
 H        12.055571        5.047387        1.578416
 H         8.160305        1.600202        0.210583
 H        10.024446        5.787928       -0.437332
 H         7.010828        2.309094       -2.464399
 H         8.254588        2.987709       -1.418274
 H        10.901720        5.041554        2.766153
 H        11.578776        6.487603        2.389735
 H         8.687095        0.183347       -1.037714
 H         6.747147        0.624998       -0.948847
 H         8.505335        4.716474       -0.932140
 H         8.624260        5.461761        0.959810
 B        14.027761        9.715490       -0.698972
 B         5.338522        2.333706        1.957534
 N        13.303316        8.315027       -1.236105
 N         5.547884        0.799896        1.451215
 H        13.472359        7.530774       -0.562188
 H         4.707312        0.358824        1.050498
 H         4.167259        9.313581        0.315149
 H         5.419631        2.338773        3.241890
 H        12.281237        8.237367       -1.454763
 H        13.732027        7.990384       -2.124683
 H         6.274546        0.802989        0.786149
 H         5.831811        0.095167        2.188861
 H        13.120172       -0.041571       -0.476809
 H         4.236996       -0.319011       -1.632666
 H         4.312221        2.810551        1.581370
 H         6.238016        3.094645        1.586106
 B        11.751548        1.572960        2.373848
 B        10.078314        8.960826        1.229259
 N        12.693505        0.496973        2.359718
 N         8.907695        8.359699        0.421340
 H        13.474044        0.625994        3.034997
 H         8.837136        8.671290       -0.504221
 H        11.648752        2.144541        3.398942
 H         9.852204       10.076962        1.593535
 H        10.602606        5.746444        1.207827
 H        12.784352       -0.026265        1.527970
 H         8.968775        7.330677        0.330226
 H         7.951678        8.571773        0.852719
 H        10.921557        1.658222        1.472961
 H         9.927313        4.037107        0.437428
 H        11.093552        8.777691        0.587808
 H        10.228087        8.324895        2.243757
 B        13.881592        5.052701       -0.041343
 B         6.029041        7.391303        2.273150
 N         4.912509        4.749812       -0.305978
 N         5.988382        6.435385        3.597398
 H         5.452440        5.633082       -0.478138
 H         6.937490        6.122906        3.828466
 H        13.437553        4.220407        0.721284
 H         4.789440        7.565574        2.112143
 H         5.438761        4.201450        0.325757
 H         4.961093        4.111739       -1.132905
 H         5.591811        6.900740        4.450475
 H         5.414254        5.573445        3.410791
 H        13.340158        5.145769       -1.140418
 H        13.744453        6.131560        0.535576
 H         6.670007        6.977443        1.334452
 H         6.499023        8.439554        2.537894
 B         8.582273        0.327530       -4.925053
 B        11.210311        2.437104       -2.651216
 N         9.993473       -0.218206        4.657328
 N        12.023677        2.571689       -1.161011
 H        10.104116       10.077870        3.694798
 H        11.407606        2.390959       -0.380095
 H         8.025173        0.392034        4.084945
 H        10.687866        3.509042       -2.687610
 H        10.701472        0.342212        5.031009
 H         9.835217        9.360586       -4.959877
 H        12.650335        1.837225       -1.016435
 H        12.553349        3.412086       -1.149814
 H         8.758612        1.555982       -4.548428
 H         8.025597       -0.269203       -4.155498
 H        10.634748        1.381756       -2.432000
 H        11.857513        2.124252       -3.547733
 B        14.209819        9.303792        4.851597
 B         4.619913        2.300317       -3.082291
 N        13.514080        8.582107        3.629173
 N         4.152181        1.935937       -4.503324
 H        14.161899        8.120373        2.904178
 H        14.028540        1.072361       -4.540207
 H        14.021673        8.524311       -4.279091
 H        14.186069        2.204338       -2.422114
 H        12.978547        7.839970        3.999474
 H        12.813629        9.238463        3.097746
 H        13.976002        2.678074       -4.867307
 H         4.874566        1.943229        4.899820
 H        13.551723       -0.234719       -4.887880
 H         4.909077        9.549943        4.749497
 H         5.180270        3.419897       -3.104399
 H         5.517634        1.550423       -2.724791
 B         8.865225        4.469584        4.207333
 B        10.472416        7.506732       -2.983500
 N         8.461931        3.132137        3.294022
 N         9.381204        6.239563       -2.983574
 H         7.464541        3.034125        3.271659
 H         8.451617        6.541136       -2.619665
 H         9.995996        4.438103        4.462151
 H        11.641953        7.096470       -3.255054
 H         8.789405        3.139259        2.296861
 H         8.866814        2.319248        3.751692
 H         9.236887        6.094606       -3.997901
 H         9.334281        5.349131       -2.489729
 H         8.218108        4.514083       -4.892262
 H         8.871292        5.445213        3.402468
 H        10.551517        8.010247       -1.889495
 H        10.119300        8.303205       -3.818294
 B        13.218039        5.037166        4.601960
 B         6.270902        7.305676       -2.509485
 N        13.287565        5.170212       -3.862589
 N         6.493644        8.845224       -2.644827
 H        13.017013        4.363240       -3.343794
 H         6.185387        9.407574       -1.774331
 H        14.210789        5.416322        4.166460
 H         5.139622        7.236168       -2.071640
 H        14.294851        5.403436       -3.467850
 H        12.629081        5.885325       -3.620557
 H         7.503013        8.932167       -2.623126
 H         6.021699        9.299101       -3.457767
 H        12.223386        5.680327        4.318000
 H        12.941079        3.840041        4.307788
 H         7.032307        6.907407       -1.672597
 H         6.491354        6.682362       -3.581950
     &END COORD

   &END SUBSYS
&END FORCE_EVAL
