&CONTROL
  calculation = 'md'
  outdir = './tmp/'
  prefix = 'pwscf'
  pseudo_dir = '/leonardo_scratch/large/userexternal/uraucci0/Li_Cr/PPS/'
  tprnfor = .true.
  tstress = .true.
  verbosity = 'high'
  disk_io='low'
  nstep = 100000
  dt=20.D0
/

&SYSTEM
  degauss = 1.4699723600d-02   
  ecutrho     = 540 
  ecutwfc     = 90 
  ibrav       = 0 
  nat= 200	!number of atoms
  ntyp= 4
  occupations = "smearing"
  smearing = 'gaussian'
  tot_charge = 0
  nosym = .true.
/

&ELECTRONS
  diagonalization = 'david'
  conv_thr         =  1.00000e-07
  electron_maxstep =  200
  mixing_beta =   2.0000000000d-01
  startingpot      = "atomic"
  startingwfc      = "atomic+random"
/

&IONS
ion_dynamics="verlet"
tempw=900.D0
ion_temperature="svr"
nraise=100
/

&CELL
/

ATOMIC_SPECIES
N   14.00674 N.pbe-n-radius_5.UPF
Li   6.94100 li_pbe_v1.4.uspp.F.UPF
Cr 51.9961 cr_pbe_v1.5.uspp.F.UPF
O 15.9994 O.pbe-n-kjpaw_psl.0.1.UPF  

K_POINTS {gamma}

CELL_PARAMETERS {angstrom}
11.407360744 0.0 0.0
-5.703680372 9.879064196 0.0
0.0 0.0 16.61531873 

ATOMIC_POSITIONS {angstrom} 
Li 4.4373555232 1.4939338673 0.7299652592
Li 2.1912179302 3.095895675 0.7299652592
Li 1.9269471053 0.3497025553 0.7299652592
Li -1.5855153369 3.4455982304 7.5776941054
Li 0.660622256 1.8436364226 7.5776941054
Li 0.924893081 4.5898295423 7.5776941054
Li 1.1463404484 1.5478057653 3.4163194124
Li 3.7900710354 0.218857067 3.4163194124
Li 3.6191090749 3.1728692653 3.4163194124
Li 1.7054997379 3.3917263323 4.8913399523
Li -0.9382308492 4.7206750305 4.8913399523
Li -0.7672688887 1.7666628323 4.8913399523
Li 0.0 0.0 2.2026367045
Li 0.0 0.0 6.1050226602
Cr 2.8518402148 1.6465106827 6.3583014977
Cr -2.85e-08 3.2930214149 1.9493578669
N 4.5104846316 1.5467905582 6.8894549542
N 2.8518402148 1.6465106827 4.6155963903
N -1.6586444454 3.3927415394 1.4182044106
N 0.7429620473 1.8067331024 1.4182044106
N 0.915682398 4.6795895534 1.4182044106
N 1.9361577882 0.2599425442 6.8894549542
N 2.1088781389 3.1327989952 6.8894549542
N -2.85e-08 3.2930214149 3.6920629743
O 0.0 0.0 4.1538296823
Li 4.4373555232 1.4939338673 9.0376246242
Li 2.1912179302 3.095895675 9.0376246242
Li 1.9269471053 0.3497025553 9.0376246242
Li -1.5855153369 3.4455982304 15.8853534704
Li 0.660622256 1.8436364226 15.8853534704
Li 0.924893081 4.5898295423 15.8853534704
Li 1.1463404484 1.5478057653 11.7239787774
Li 3.7900710354 0.218857067 11.7239787774
Li 3.6191090749 3.1728692653 11.7239787774
Li 1.7054997379 3.3917263323 13.1989993173
Li -0.9382308492 4.7206750305 13.1989993173
Li -0.7672688887 1.7666628323 13.1989993173
Li 0.0 0.0 10.5102960695
Li 0.0 0.0 14.4126820252
Cr 2.8518402148 1.6465106827 14.6659608627
Cr -2.85e-08 3.2930214149 10.2570172319
N 4.5104846316 1.5467905582 15.1971143192
N 2.8518402148 1.6465106827 12.9232557553
N -1.6586444454 3.3927415394 9.7258637756
N 0.7429620473 1.8067331024 9.7258637756
N 0.915682398 4.6795895534 9.7258637756
N 1.9361577882 0.2599425442 15.1971143192
N 2.1088781389 3.1327989952 15.1971143192
N -2.85e-08 3.2930214149 11.9997223393
O 0.0 0.0 12.4614890473
Li 1.5855153372 6.4334659653 0.7299652592
Li -0.6606222558 8.035427773 0.7299652592
Li -0.9248930807 5.2892346533 0.7299652592
Li -4.4373555229 8.3851303284 7.5776941054
Li -2.19121793 6.7831685206 7.5776941054
Li -1.926947105 9.5293616403 7.5776941054
Li -1.7054997376 6.4873378633 3.4163194124
Li 0.9382308494 5.158389165 3.4163194124
Li 0.7672688889 8.1124013633 3.4163194124
Li -1.1463404481 8.3312584303 4.8913399523
Li -3.7900710352 9.6602071285 4.8913399523
Li -3.6191090747 6.7061949303 4.8913399523
Li -2.851840186 4.939532098 2.2026367045
Li -2.851840186 4.939532098 6.1050226602
Cr 2.8800000162e-08 6.5860427807 6.3583014977
Cr -2.8518402145 8.2325535129 1.9493578669
N 1.6586444456 6.4863226562 6.8894549542
N 2.8800000162e-08 6.5860427807 4.6155963903
N -4.5104846314 8.3322736374 1.4182044106
N -2.1088781387 6.7462652004 1.4182044106
N -1.936157788 9.6191216514 1.4182044106
N -0.9156823978 5.1994746422 6.8894549542
N -0.7429620471 8.0723310932 6.8894549542
N -2.8518402145 8.2325535129 3.6920629743
O -2.851840186 4.939532098 4.1538296823
Li 1.5855153372 6.4334659653 9.0376246242
Li -0.6606222558 8.035427773 9.0376246242
Li -0.9248930807 5.2892346533 9.0376246242
Li -4.4373555229 8.3851303284 15.8853534704
Li -2.19121793 6.7831685206 15.8853534704
Li -1.926947105 9.5293616403 15.8853534704
Li -1.7054997376 6.4873378633 11.7239787774
Li 0.9382308494 5.158389165 11.7239787774
Li 0.7672688889 8.1124013633 11.7239787774
Li -1.1463404481 8.3312584303 13.1989993173
Li -3.7900710352 9.6602071285 13.1989993173
Li -3.6191090747 6.7061949303 13.1989993173
Li -2.851840186 4.939532098 10.5102960695
Li -2.851840186 4.939532098 14.4126820252
Cr 2.8800000162e-08 6.5860427807 14.6659608627
Cr -2.8518402145 8.2325535129 10.2570172319
N 1.6586444456 6.4863226562 15.1971143192
N 2.8800000162e-08 6.5860427807 12.9232557553
N -4.5104846314 8.3322736374 9.7258637756
N -2.1088781387 6.7462652004 9.7258637756
N -1.936157788 9.6191216514 9.7258637756
N -0.9156823978 5.1994746422 15.1971143192
N -0.7429620471 8.0723310932 15.1971143192
N -2.8518402145 8.2325535129 11.9997223393
O -2.851840186 4.939532098 12.4614890473
Li 10.1410358952 1.4939338673 0.7299652592
Li 7.8948983022 3.095895675 0.7299652592
Li 7.6306274773 0.3497025553 0.7299652592
Li 4.1181650351 3.4455982304 7.5776941054
Li 6.364302628 1.8436364226 7.5776941054
Li 6.628573453 4.5898295423 7.5776941054
Li 6.8500208204 1.5478057653 3.4163194124
Li 9.4937514074 0.218857067 3.4163194124
Li 9.3227894469 3.1728692653 3.4163194124
Li 7.4091801099 3.3917263323 4.8913399523
Li 4.7654495228 4.7206750305 4.8913399523
Li 4.9364114833 1.7666628323 4.8913399523
Li 5.703680372 0.0 2.2026367045
Li 5.703680372 0.0 6.1050226602
Cr 8.5555205868 1.6465106827 6.3583014977
Cr 5.7036803435 3.2930214149 1.9493578669
N 10.2141650036 1.5467905582 6.8894549542
N 8.5555205868 1.6465106827 4.6155963903
N 4.0450359266 3.3927415394 1.4182044106
N 6.4466424193 1.8067331024 1.4182044106
N 6.61936277 4.6795895534 1.4182044106
N 7.6398381602 0.2599425442 6.8894549542
N 7.8125585109 3.1327989952 6.8894549542
N 5.7036803435 3.2930214149 3.6920629743
O 5.703680372 0.0 4.1538296823
Li 10.1410358952 1.4939338673 9.0376246242
Li 7.8948983022 3.095895675 9.0376246242
Li 7.6306274773 0.3497025553 9.0376246242
Li 4.1181650351 3.4455982304 15.8853534704
Li 6.364302628 1.8436364226 15.8853534704
Li 6.628573453 4.5898295423 15.8853534704
Li 6.8500208204 1.5478057653 11.7239787774
Li 9.4937514074 0.218857067 11.7239787774
Li 9.3227894469 3.1728692653 11.7239787774
Li 7.4091801099 3.3917263323 13.1989993173
Li 4.7654495228 4.7206750305 13.1989993173
Li 4.9364114833 1.7666628323 13.1989993173
Li 5.703680372 0.0 10.5102960695
Li 5.703680372 0.0 14.4126820252
Cr 8.5555205868 1.6465106827 14.6659608627
Cr 5.7036803435 3.2930214149 10.2570172319
N 10.2141650036 1.5467905582 15.1971143192
N 8.5555205868 1.6465106827 12.9232557553
N 4.0450359266 3.3927415394 9.7258637756
N 6.4466424193 1.8067331024 9.7258637756
N 6.61936277 4.6795895534 9.7258637756
N 7.6398381602 0.2599425442 15.1971143192
N 7.8125585109 3.1327989952 15.1971143192
N 5.7036803435 3.2930214149 11.9997223393
O 5.703680372 0.0 12.4614890473
Li 7.2891957092 6.4334659653 0.7299652592
Li 5.0430581162 8.035427773 0.7299652592
Li 4.7787872913 5.2892346533 0.7299652592
Li 1.2663248491 8.3851303284 7.5776941054
Li 3.512462442 6.7831685206 7.5776941054
Li 3.776733267 9.5293616403 7.5776941054
Li 3.9981806344 6.4873378633 3.4163194124
Li 6.6419112214 5.158389165 3.4163194124
Li 6.4709492609 8.1124013633 3.4163194124
Li 4.5573399239 8.3312584303 4.8913399523
Li 1.9136093368 9.6602071285 4.8913399523
Li 2.0845712973 6.7061949303 4.8913399523
Li 2.851840186 4.939532098 2.2026367045
Li 2.851840186 4.939532098 6.1050226602
Cr 5.7036804008 6.5860427807 6.3583014977
Cr 2.8518401575 8.2325535129 1.9493578669
N 7.3623248176 6.4863226562 6.8894549542
N 5.7036804008 6.5860427807 4.6155963903
N 1.1931957406 8.3322736374 1.4182044106
N 3.5948022333 6.7462652004 1.4182044106
N 3.767522584 9.6191216514 1.4182044106
N 4.7879979742 5.1994746422 6.8894549542
N 4.9607183249 8.0723310932 6.8894549542
N 2.8518401575 8.2325535129 3.6920629743
O 2.851840186 4.939532098 4.1538296823
Li 7.2891957092 6.4334659653 9.0376246242
Li 5.0430581162 8.035427773 9.0376246242
Li 4.7787872913 5.2892346533 9.0376246242
Li 1.2663248491 8.3851303284 15.8853534704
Li 3.512462442 6.7831685206 15.8853534704
Li 3.776733267 9.5293616403 15.8853534704
Li 3.9981806344 6.4873378633 11.7239787774
Li 6.6419112214 5.158389165 11.7239787774
Li 6.4709492609 8.1124013633 11.7239787774
Li 4.5573399239 8.3312584303 13.1989993173
Li 1.9136093368 9.6602071285 13.1989993173
Li 2.0845712973 6.7061949303 13.1989993173
Li 2.851840186 4.939532098 10.5102960695
Li 2.851840186 4.939532098 14.4126820252
Cr 5.7036804008 6.5860427807 14.6659608627
Cr 2.8518401575 8.2325535129 10.2570172319
N 7.3623248176 6.4863226562 15.1971143192
N 5.7036804008 6.5860427807 12.9232557553
N 1.1931957406 8.3322736374 9.7258637756
N 3.5948022333 6.7462652004 9.7258637756
N 3.767522584 9.6191216514 9.7258637756
N 4.7879979742 5.1994746422 15.1971143192
N 4.9607183249 8.0723310932 15.1971143192
N 2.8518401575 8.2325535129 11.9997223393
O 2.851840186 4.939532098 12.4614890473
