&CONTROL
    calculation='scf', disk_io='low', prefix='pwscf',nstep=300
    pseudo_dir='./PSEUDOPOTENTIALS/'
    outdir='./tmp',tprnfor=.true., tstress=.true.
/
!scf --> single point calculation

&SYSTEM
    a     =  1.42660e+01
    b     =  1.01870e+01
    c     =  7.13300e+00
    degauss     =  1.00000e-02
    ecutrho     =  4.00000e+02
    ecutwfc     =  8.00000e+01		!energy cutoff in Rydberg for waves
    ibrav       = 8
    nat         = 128	!number of atoms
    ntyp        = 3
    occupations = "smearing"
    smearing    = "gaussian"
    tot_charge = 0
/

&ELECTRONS
    diagonalization = 'david'
    conv_thr         =  1.00000e-07
    electron_maxstep = 2000
    mixing_beta      =  3.00000e-01
    startingpot      = "atomic"
    startingwfc      = "atomic+random"
/

K_POINTS {gamma}

ATOMIC_SPECIES
H    1.00794   H.pbe-rrkjus_psl.1.0.0.UPF
N   14.00674   N.pbe-n-rrkjus_psl.1.0.0.UPF
Li   6.94100   Li.pbe-sl-rrkjus_psl.1.0.0.UPF

ATOMIC_POSITIONS {angstrom}
Li            5.3372691260        6.2420283918        2.6189126490
Li            1.7690774186        3.8311759014        2.6188708808
Li            1.7691123768        1.1573072612        6.1869753744
Li            5.3373115010        8.9136785863        6.1869846350
Li            5.3358485397        1.1816100473        2.6208954079
Li            1.7704500233        8.8920284849        2.6208861338
Li            1.7704848767        6.2695226430        6.1847509086
Li            5.3357916821        3.8008245703        6.1847223172
Li            5.3374026059        9.0399175066        2.6218649834
Li            1.7700247680        1.0329879549        2.6218930298
Li            1.7700260753        3.9525666862        6.1856780559
Li            5.3374108428        6.1187131189        6.1856598534
Li            5.3370748589        7.5764981785        0.8381637335
Li            1.7682534572        2.4955498126        0.8381623988
Li            1.7682877781        2.4999444260        4.4068895509
Li            5.3370732007        7.5721559636        4.4068685831
Li            0.0322856302        8.9610056713        0.9768664195
Li            7.0691399746        1.1116130918        0.9762069590
Li            3.5070063386        8.9606835085        0.9769053318
Li            3.6002229086        1.1126651969        0.9762143686
Li            3.6031405814        3.8665232955        4.5411201907
Li            3.5041537784        6.2040621257        4.5419432721
Li            7.0663147950        3.8675783566        4.5411854710
Li            0.0351850283        6.2037804367        4.5417923279
Li            0.0350359497        6.2045958388        0.6958058124
Li            7.0664862249        3.8667571172        0.6964001268
Li            3.5043418506        6.2048871415        0.6956488436
Li            3.6029789344        3.8656932357        0.6964616463
Li            3.5983908948        1.1123491176        4.2634806275
Li            3.5088426953        8.9610148553        4.2627890399
Li            7.0709691610        1.1112919121        4.2634956495
Li            0.0304320852        8.9613408700        4.2628492842
N             5.3361558785       10.0343900173        4.3186491416
N             1.7696446389        0.0367236563        4.3180620213
N             1.7696648922        4.9390815385        0.7510771863
N             5.3361414609        5.1339199976        0.7516326385
N             5.3361593234       10.0323590843        0.9226922144
N             1.7696590542        0.0387850565        0.9232952164
N             1.7696431274        4.9387704907        4.4858138526
N             5.3361376946        5.1342128810        4.4852427866
N             6.8874068346        7.6894490733        2.6193702502
N             0.2212922465        2.3824181151        2.6193667870
N             3.7874406478        7.6899417483        2.6193694909
N             3.3207025221        2.3835139018        2.6193672130
N             3.3244912091        2.6048405037        6.1845540355
N             3.7836183085        7.4658248161        6.1845725399
N             0.2176275212        2.6060023965        6.1845581083
N             6.8912334624        7.4662577313        6.1845730703
H             5.3368393158        4.5375204275        1.6013129892
H             1.7724206463        5.5362611342        1.6002281480
H             1.7724042693        9.6351592521        5.1726293967
H             5.3368778963        0.4351679723        5.1737295388
H             5.3368300825        4.5357181726        3.6370205765
H             1.7723338203        5.5380532247        3.6381317296
H             1.7723566925        9.6349467518        0.0702637743
H             5.3368614870        0.4354158008        0.0691494060
H             0.5610489997        8.1158250015        6.1831410563
H             6.5378609126        1.9531324128        6.1831712810
H             2.9776126229        8.1194741995        6.1831673836
H             4.1315543143        1.9524117000        6.1831700978
H             4.1265343757        3.0374457330        2.6199703737
H             2.9827436742        7.0347123186        2.6199722147
H             6.5429248484        3.0366680355        2.6199702670
H             0.5559926010        7.0380490008        2.6200182362
Li           12.4669376479        6.2408253525        2.6188681552
Li            8.8987412356        3.8299786538        2.6189178314
Li            8.8986937510        1.1583248040        6.1869882075
Li           12.4668981150        8.9146979206        6.1869731276
Li           12.4655847195        1.1799662955        2.6208861097
Li            8.9002009146        8.8903864041        2.6208974435
Li            8.9002715014        6.2711804519        6.1847218561
Li           12.4655603605        3.8024834092        6.1847513983
Li           12.4659782422        9.0390036089        2.6218963370
Li            8.8985907524        1.0320741912        2.6218618196
Li            8.8985903258        3.9532915494        6.1856583071
Li           12.4659864913        6.1194351644        6.1856803883
Li           12.4677842236        7.5764572477        0.8381629387
Li            8.8989551664        2.4955111844        0.8381653418
Li            8.8989514282        2.4998254081        4.4068690209
Li           12.4677499230        7.5720359464        4.4068912869
Li            7.1668539201        8.9603887699        0.9762218959
Li           14.2037063688        1.1110036646        0.9768558666
Li           10.6357818112        8.9593099078        0.9761950305
Li           10.7289839286        1.1112911831        0.9769221376
Li           10.7318366157        3.8679386411        4.5419538097
Li           10.6328687036        6.2054773117        4.5411042733
Li           14.2008278186        3.8681901081        4.5417764959
Li            7.1696969831        6.2043998183        4.5412059958
Li            7.1695245623        6.2052199626        0.6963750279
Li           14.2009742910        3.8673792524        0.6958235201
Li           10.6330338464        6.2063060334        0.6964720411
Li           10.7316556810        3.8671141872        0.6956420983
Li           10.7271460866        1.1109582744        4.2627705528
Li           10.6376134710        8.9596230165        4.2635005058
Li           14.2055544341        1.1106672055        4.2628567710
Li            7.1650170562        8.9607100889        4.2634856716
N            12.4663487014       10.0352853642        4.3180625705
N             8.8998380476        0.0376182169        4.3186479297
N             8.8998614340        4.9380880735        0.7516333955
N            12.4663371385        5.1329266252        0.7510760044
N            12.4663356571       10.0332194794        0.9232955128
N             8.8998362331        0.0396437231        0.9226925583
N             8.8998638710        4.9377985689        4.4852424953
N            12.4663574624        5.1332398321        4.4858147666
N            14.0146869897        7.6895835999        2.6193678135
N             7.3485692179        2.3825537791        2.6193693588
N            10.9152842405        7.6884869065        2.6193675904
N            10.4485350355        2.3820596633        2.6193686242
N            10.4523567100        2.6061772421        6.1845735818
N            10.9114924400        7.4671598248        6.1845531718
N             7.3447465980        2.6057458744        6.1845736121
N            14.0183566219        7.4660013586        6.1845568234
H            12.4635703443        4.5357442512        1.6002244034
H             8.8991519595        5.5344906273        1.6013119934
H             8.8991078761        9.6368382583        5.1737263750
H            12.4635801329        0.4368523274        5.1726288275
H            12.4636559679        4.5339520860        3.6381366679
H             8.8991601511        5.5362931937        3.6370197913
H             8.8991257538        9.6365880780        0.0691499189
H            12.4636294074        0.4370617892        0.0702666124
H             7.6981229835        8.1188654877        6.1831701358
H            13.6749380908        1.9561740909        6.1831426459
H            10.1044378323        8.1196005698        6.1831690928
H            11.2583729696        1.9525420047        6.1831675672
H            11.2532379650        3.0372813520        2.6199741052
H            10.1094525726        7.0345544990        2.6199676956
H            13.6799969092        3.0339667396        2.6200179754
H             7.6930609654        7.0353480450        2.6199682309
